c --- [ banner ] -------------------------------------------------------------
c 
c CaDiCaL Radically Simplified CDCL SAT Solver
c Copyright (c) 2016-2021 A. Biere, M. Fleury, N. Froleyks
c 
c Version 1.5.2 a5f15211db36c3956764e18194dd5bd63bf3b5e6
c g++ (GCC) 9.3.0 -Wall -Wextra -O3 -DNDEBUG
c Fri Oct 21 01:27:37 EDT 2022 Linux gra-login3 3.10.0-1160.66.1.el7.x86_64 x86_64
c 
c --- [ limit ] --------------------------------------------------------------
c 
c setting conflict limit to 200000 conflicts (due to '200000')
c 
c --- [ parsing input ] ------------------------------------------------------
c 
c reading DIMACS file from '33.cubes2952.adj'
c opening file to read '33.cubes2952.adj'
c found 'p cnf 6160 1595476' header
c parsed 1595476 clauses in 20.61 seconds process time
c closing file '33.cubes2952.adj'
c after reading 1457566786 bytes 1390.0 MB
c 
c --- [ options ] ------------------------------------------------------------
c 
c all options are set to their default value
c 
c --- [ solving ] ------------------------------------------------------------
c 
c time measured in process time since initialization
c 
c  seconds    reductions  redundant   irredundant
c          MB     restarts       trail       variables
c            level   conflicts       glue         remaining
c 
c * 20.61 1387  0 0   0    0    0  0% 0 1595422 2344 38%
c { 21.43 1435  0 0   0    0    0  0% 0 1595422 2344 38%
c i 23.99 1488 248 0   5   69   58 25% 4 1595422 2320 38%
c i 25.84 1514 147 0  19  135  113 24% 11 1595422 2319 38%
c i 26.35 1519 140 0  23  148  124 25% 11 1595422 2318 38%
c i 27.97 1526 118 0  37  202  170 25% 15 1595422 2317 38%
c i 27.98 1526 117 0  37  203  170 25% 15 1595422 2316 38%
c i 27.98 1526 116 0  38  205  171 25% 15 1595422 2315 38%
c i 28.82 1531 114 0  47  242  202 26% 19 1595422 2314 38%
c i 28.88 1531 113 0  49  247  206 26% 20 1595422 2313 38%
c - 34.07 1521 102 1  63  301  245 26% 21 491471 2313 38%
c i 34.37 1522 94 1  64  336  252 25% 21 491471 2312 38%
c i 34.94 1448 92 1  70  365  278 25% 21 491471 2311 38%
c i 36.31 1451 88 1  79  467  366 26% 22 491471 2310 38%
c i 37.15 1452 78 1  84  562  443 26% 21 491471 2309 37%
c i 37.41 1452 75 1  85  615  486 27% 21 491471 2308 37%
c i 37.85 1453 76 1  91  649  516 27% 22 491471 2306 37%
c i 37.87 1453 76 1  92  650  516 27% 22 491471 2305 37%
c i 37.98 1453 76 1  92  656  521 27% 21 491471 2298 37%
c i 38.67 1453 67 1  92  790  638 27% 20 491471 2297 37%
c 
c  seconds    reductions  redundant   irredundant
c          MB     restarts       trail       variables
c            level   conflicts       glue         remaining
c 
c i 39.34 1454 62 1 100  932  755 28% 20 491471 2291 37%
c i 39.87 1455 63 1 106  959  778 28% 20 491471 2290 37%
c } 40.19 1455 61 1 107 1000  809 28% 20 491471 2290 37%
c [ 40.19 1455  0 1 107 1000  809  0% 0 491471 2290 37%
c O 40.22 1455 14 1 107 1004  813 30% 10 491471 2290 37%
c i 40.81 1455 15 1 107 1099  884 30% 10 491471 2289 37%
c i 40.89 1455 15 1 107 1157  928 31% 11 491471 2288 37%
c i 40.94 1455 14 1 107 1213  966 31% 11 491471 2287 37%
c - 42.04 1656 16 2 107 1315  952 31% 12 451511 2287 37%
c i 42.25 1656 17 2 107 1330  963 31% 12 451511 2286 37%
c i 42.38 1656 19 2 107 1389 1008 31% 14 451511 2285 37%
c i 42.47 1656 20 2 107 1489 1072 30% 15 451511 2284 37%
c - 43.69 1655 21 3 108 2808 1392 30% 18 451502 2284 37%
c ] 44.22 1655 21 3 108 3000 1486 52% 17 451502 2284 37%
c { 44.22 1655 61 3 108 3000 1486 74% 20 451502 2284 37%
c F 44.29 1655 61 3 108 3006 1490 74% 20 451502 2284 37%
c i 44.68 1655 58 3 108 3067 1539 72% 19 451502 2283 37%
c i 44.75 1655 58 3 108 3073 1544 72% 19 451502 2282 37%
c i 46.83 1655 59 3 140 3255 1715 68% 21 451502 2281 37%
c i 49.71 1655 58 3 175 3563 1982 63% 21 451502 2280 37%
c 
c  seconds    reductions  redundant   irredundant
c          MB     restarts       trail       variables
c            level   conflicts       glue         remaining
c 
c i 49.90 1655 58 3 179 3604 2015 62% 21 451502 2279 37%
c i 50.59 1655 60 3 188 3660 2063 62% 22 451502 2278 37%
c i 53.15 1655 60 3 234 3881 2242 59% 23 451502 2277 37%
c i 53.65 1655 54 3 235 4358 2641 58% 22 451502 2276 37%
c i 55.64 1655 54 3 276 4559 2816 56% 23 451502 2275 37%
c i 56.43 1655 56 3 295 4638 2886 56% 24 451502 2273 37%
c i 56.75 1655 56 3 300 4658 2903 56% 24 451502 2272 37%
c i 57.87 1655 56 3 320 4782 3004 56% 24 451502 2271 37%
c - 58.59 1538 56 4 323 4793 2312 56% 24 451463 2271 37%
c p 70.48 1537 53 4 331 5000 7020 55% 23 451451 2214 36%
c d 71.27 1538 53 4 331 5000 6704 55% 23 451298 2211 36%
c # 73.17 1538 45 4 331 6009 7353 54% 22 451298 2211 36%
c } 76.82 1538 44 4 406 7002 8110 53% 23 451298 2211 36%
c [ 76.82 1538 21 4 406 7002 8110 52% 17 451298 2211 36%
c - 77.42 1526 21 5 407 7274 3165 50% 17 451298 2211 36%
c I 79.69 1526 22 5 408 10010 5076 48% 19 451298 2211 36%
c - 80.54 1526 23 6 409 10254 3729 48% 19 451298 2211 36%
c - 83.92 1526 26 7 411 13728 4057 50% 22 451298 2211 36%
c p 90.28 1526 27 7 411 15001 9321 50% 23 451298 2210 36%
c d 90.63 1526 27 7 411 15001 9279 50% 23 451210 2208 36%
c 
c  seconds    reductions   redundant   irredundant
c          MB     restarts        trail       variables
c            level    conflicts       glue         remaining
c 
c ] 90.79 1526 27 7 411 15002 9280 50% 23 451210 2208 36%
c { 90.79 1526 44 7 411 15002 9280 53% 23 451210 2208 36%
c B 90.92 1526 44 7 411 15011 9289 53% 23 451210 2208 36%
c - 95.45 1343 37 8 454 17698 5128 51% 20 451210 2208 36%
c s 100.10 1343 37 8 591 18822 5883 50% 21 448607 2208 36%
c v 107.88 1343 37 8 591 18822 5883 50% 21 448587 2208 36%
c t 108.07 1343 37 8 591 18822 5869 50% 21 448573 2208 36%
c e 109.81 1345 37 8 591 18822 5127 50% 21 446671 999 16%
c s 109.96 1345 37 8 591 18822 5127 50% 21 441623 999 16%
c W 116.43 1526 34 8 660 21012 6490 67% 20 441623 999 16%
c - 118.43 1345 33 9 714 22166 5581 67% 20 441623 999 16%
c - 125.81 1525 29 10 749 27103 6202 67% 19 441623 999 16%
c F 126.56 1525 28 10 749 28015 6724 67% 18 441623 999 16%
c 3 128.18 1525 27 10 759 30001 8525 67% 18 441623 999 16%
c p 136.57 1525 27 10 759 30001 13045 67% 18 441623 983 16%
c d 137.20 1525 27 10 759 30001 11322 67% 18 441577 982 16%
c } 138.21 1525 27 10 771 31004 11854 67% 18 441577 982 16%
c [ 138.21 1525 27 10 771 31004 11854 114% 23 441577 982 16%
c - 139.26 1345 26 11 771 32532 6817 107% 22 441577 982 16%
c B 140.93 1345 26 11 774 36017 9049 97% 22 441577 982 16%
c 
c  seconds     reductions    redundant   irredundant
c           MB      restarts        trail       variables
c             level     conflicts       glue        remaining
c 
c - 143.37 1520 28 12 775 38455 7774 92% 24 441577 982 16%
c - 148.94 1345 28 13 778 44871 7593 85% 24 441577 982 16%
c W 150.20 1345 28 13 778 45018 7672 85% 24 441577 982 16%
c 2 152.98 1344 29 13 779 50004 11407 81% 25 441577 982 16%
c p 155.76 1344 29 13 779 50004 14246 81% 25 441577 982 16%
c - 157.88 1520 29 14 779 51780 8595 80% 25 441577 982 16%
c s 159.84 1520 28 14 779 53976 9857 79% 25 438033 982 16%
c v 165.86 1520 28 14 779 53976 9857 79% 25 438021 982 16%
c w 166.13 1520 28 14 779 53976 9857 79% 25 438021 982 16%
c t 166.14 1520 28 14 779 53976 9855 79% 25 438019 982 16%
c s 167.86 1520 28 14 779 53976 9855 79% 25 434411 982 16%
c O 170.81 1520 28 14 780 55019 10497 79% 24 434411 982 16%
c - 173.74 1345 27 15 783 59183 8932 77% 23 434411 982 16%
c ] 176.40 1345 26 15 786 63006 10992 76% 22 434411 982 16%
c { 176.40 1345 27 15 786 63006 10992 67% 18 434411 982 16%
c B 180.57 1345 25 15 873 66021 13011 67% 17 434411 982 16%
c - 182.40 1518 25 16 919 67044 9251 67% 17 434411 982 16%
c } 182.62 1518 25 16 919 67467 9448 67% 17 434411 982 16%
c 1 182.62 1518 25 16 919 67467 9448 67% 17 434411 982 16%
c 
c --- [ writing output ] -----------------------------------------------------
c 
c writing simplified CNF to DIMACS file 'simp/33.cubes2952.adj.simp1'
c * 182.62 1518 25 16 919 67467 9448 67% 17 434411 982 16%
c opening file to write 'simp/33.cubes2952.adj.simp1'
c writing 'p cnf 6160 434411' header
c closing file 'simp/33.cubes2952.adj.simp1'
c after writing 197823100 bytes 188.7 MB
c wrote 434411 clauses in 1.46 seconds process time
c 
c --- [ writing extension ] --------------------------------------------------
c 
c writing extension stack to 'simp/33.cubes2952.adj.ext1'
c opening file to write 'simp/33.cubes2952.adj.ext1'
c closing file 'simp/33.cubes2952.adj.ext1'
c after writing 82922 bytes 0.1 MB
c wrote 3719 witnesses in 0.00 seconds process time
c 
c --- [ result ] -------------------------------------------------------------
c 
s SATISFIABLE
c 
c --- [ run-time profiling ] -------------------------------------------------
c 
c process time taken by individual solving procedures
c (percentage relative to process time for solving)
c 
c       111.65   68.91% search
c        72.12   44.51% unstable
c        50.36   31.09% simplify
c        37.26   23.00% stable
c        26.44   16.32% probe
c        20.61   12.72% parse
c        14.16    8.74% vivify
c         6.07    3.75% elim
c         1.45    0.90% walk
c         0.82    0.50% lucky
c         0.67    0.41% subsume
c         0.27    0.17% ternary
c   =================================
c       162.01   88.01% solve
c 
c last line shows process time for solving
c (percentage relative to total process time)
c 
c --- [ statistics ] ---------------------------------------------------------
c 
c chronological:             11495        17.04 %  of conflicts
c conflicts:                 67467       416.43    per second
c decisions:                130670       806.55    per second
c eliminated:                 1209        19.63 %  of all variables
c fixed:                       813        13.20 %  of all variables
c learned:                   66038        97.88 %  per conflict
c learned_lits:           11576100       100.00 %  learned literals
c minimized:                     0         0.00 %  learned literals
c shrunken:                7989714        69.02 %  learned literals
c minishrunken:             710829         6.14 %  learned literals
c propagations:            5959002         0.04 M  per second
c reduced:                   33805        50.11 %  per conflict
c rephased:                     11      6133.36    interval
c restarts:                    919        73.41    interval
c stabilizing:                   3        62.26 %  of conflicts
c substituted:                  12         0.19 %  of all variables
c subsumed:                  36920         1.06 %  of all clauses
c strengthened:               8207         0.24 %  of all clauses
c ternary:                    3148         0.66 %  of resolved
c vivified:                     53         0.00 %  of all clauses
c walked:                        2     33733.50    interval
c weakened:                   2906         3.10    average size
c 
c seconds are measured in process time for solving
c 
c --- [ resources ] ----------------------------------------------------------
c 
c total process time since initialization:       184.09    seconds
c total real time since initialization:          210.28    seconds
c maximum resident set size of process:         1855.36    MB
c 
c --- [ shutting down ] ------------------------------------------------------
c 
c exit 10
WARNING! DIMACS header mismatch: wrong number of variables.
============================[ Problem Statistics ]=============================
|                                                                             |
|  Number of variables:          4041                                         |
|  Number of clauses:          434413                                         |
|  Parse time:                   2.61 s                                       |
|  Simplification time:          0.07 s                                       |
|                                                                             |
============================[ Search Statistics ]====================================================
| Conflicts |          ORIGINAL         |          LEARNT          | Num Sols |      SUBGRAPHS      |
|           |    Vars  Clauses Literals |    Limit  Clauses Lit/Cl |          | Canonical Noncanon. |
=====================================================================================================
|       108 |    3950   434421 43178675 |     2000      108    142 |        0 |        14         8 |
|      1284 |    3950   435447 43197231 |     2000     1284     28 |        0 |       465      1034 |
|      2334 |    3950   436272 43210518 |     3600     1334     14 |        0 |       797      1859 |
|      2759 |    3950   436360 43212036 |     3600     1759     27 |        0 |       844      1947 |
|      3266 |    3950   436361 43212046 |     3600     2266     39 |        0 |       844      1948 |
|      4232 |    3950   436568 43215219 |     3600     3232     47 |        0 |       919      2155 |
|      5501 |    3950   436698 43217394 |     5005     2706     32 |        0 |       936      2285 |
|      7412 |    3950   436901 43220159 |     5005     4617     42 |        0 |       980      2488 |
|     10237 |    3950   437164 43223989 |     6311     4948     47 |        0 |      1027      2751 |
|     14774 |    3950   437857 43233750 |     7557     6331     40 |        0 |      1186      3444 |
|     20707 |    3950   438024 43236817 |     8788     8495     49 |        0 |      1232      3611 |
|     35660 |    3882   444328 43304025 |    12399     8459     14 |        0 |      3471      9915 |
|     50547 |    3860   446241 43324410 |    14804    10350     28 |        0 |      4568     11828 |
|     74717 |    3833   450950 43372861 |    18406    10523     18 |        0 |      6139     16537 |
=====================================================================================================
Number of solutions   : 0
Canonical subgraphs   : 6310           (3 /sec)
          order  3    : 1              (200000 /sec)
          order  4    : 1              (500000 /sec)
          order  5    : 1              (250000 /sec)
          order  6    : 1              (52632 /sec)
          order  7    : 1              (8772 /sec)
          order  8    : 2              (1367 /sec)
          order  9    : 5              (278 /sec)
          order 10    : 12             (58 /sec)
          order 11    : 25             (15 /sec)
          order 12    : 40             (2 /sec)
          order 13    : 69             (0 /sec)
          order 14    : 406            (1 /sec)
          order 15    : 2961           (4 /sec)
          order 16    : 2694           (3 /sec)
          order 17    : 75             (2 /sec)
          order 18    : 13             (2 /sec)
          order 19    : 3              (2 /sec)
          order 20    : 0              (-nan /sec)
          order 21    : 0              (-nan /sec)
          order 22    : 0              (-nan /sec)
Noncanonical subgraphs: 17033          (77 /sec)
          order  3    : 0              (-nan /sec)
          order  4    : 0              (-nan /sec)
          order  5    : 0              (-nan /sec)
          order  6    : 0              (-nan /sec)
          order  7    : 0              (-nan /sec)
          order  8    : 0              (-nan /sec)
          order  9    : 0              (-nan /sec)
          order 10    : 0              (-nan /sec)
          order 11    : 0              (-nan /sec)
          order 12    : 0              (-nan /sec)
          order 13    : 182            (7182 /sec)
          order 14    : 1575           (1604 /sec)
          order 15    : 7367           (425 /sec)
          order 16    : 4182           (222 /sec)
          order 17    : 3690           (20 /sec)
          order 18    : 32             (17 /sec)
          order 19    : 5              (11 /sec)
          order 20    : 0              (-nan /sec)
          order 21    : 0              (-nan /sec)
Canonicity checking   : 2316.27 s
Noncanonicity checking: 221.585 s
Total canonicity time : 2537.85 s
database reductions   : 14
restarts              : 253
conflicts             : 83138          (32 /sec)
decisions             : 138985         (0.00 % random) (53 /sec)
propagations          : 4596490        (1762 /sec)
conflict literals     : 4798375        (55.04 % deleted)
actual reward         : 0.212904
Memory used           : 255.00 MB
CPU time              : 2608.99 s

UNSATISFIABLE
